Minimize
  0 f0 + 0 f1 + 0 f2 + 0 f3 + 0 f4 + 0 f5 + 0 f6 + f7 + 0 f8 + 0 f9 + 0 f10
   + 0 f11 + 0 f12 + 0 f13 + 0 f14 + 0 f15 + f16 + 0 f17 + f18 + 0 f19
   + 0 f20 + 0 f21 + 0 f22 + 0 f23 + 0 f24 + f25 + 0 f26 + f27 + 0 f28
   + f29 + 0 f30 + 0 f31 + 0 f32 + 0 f33 + 0 f34 + 0 f35 + f36 + 0 f37
   + f38 + 0 f39 + 0 f40 + 0 f41 + 0 f42 + 0 f43 + 0 f44 + 0 f45 + 0 f46
   + f47 + 0 f48 + 0 f49 + 0 f50 + 0 f51 + 0 f52 + 0 f53 + 0 f54 + 0 f55
   + 0 f56 + 0 f57 + 0 f58 + 0 f59 + 0 f60 + 0 f61 + 0 f62 + 0 f63 + 0 f64
   + 0 f65 + 0 f66 + 0 f67 + 0 f68 + 0 f69 + 0 f70 + 0 f71 + 0 f72 + 0 f73
   + 0 f74 + 0 f75 + 0 f76 + 0 f77 + 0 f78 + 0 f79 + 0 f80 + 0 f81 + 0 f82
   + 0 f83 + 0 f84 + 0 f85 + 0 f86 + 0 f87 + 0 f88 + 0 f89 + 0 f90 + 0 f91
   + 0 f92 + 0 f93 + 0 f94 + 0 f95 + 0 f96 + 0 f97 + 0 f98 + 0 f99
Subject To
 R0: f7 = 1
 R1: f16 + f18 = 1
 R2: f25 + f27 + f29 = 1
 R3: f36 + f38 = 2
 R4: f47 = 0
 R5: - f25 = -1
 R6: - f16 - f36 = -1
 R7: - f7 - f27 - f47 = -1
 R8: - f18 - f38 = -2
 R9: - f29 = 0
Bounds
 f0 <= 1
 f1 <= 1
 f2 <= 1
 f3 <= 1
 f4 <= 1
 f5 <= 1
 f6 <= 1
 f7 <= 1
 f8 <= 1
 f9 <= 1
 f10 <= 1
 f11 <= 1
 f12 <= 1
 f13 <= 1
 f14 <= 1
 f15 <= 1
 f16 <= 1
 f17 <= 1
 f18 <= 1
 f19 <= 1
 f20 <= 1
 f21 <= 1
 f22 <= 1
 f23 <= 1
 f24 <= 1
 f25 <= 1
 f26 <= 1
 f27 <= 1
 f28 <= 1
 f29 <= 1
 f30 <= 1
 f31 <= 1
 f32 <= 1
 f33 <= 1
 f34 <= 1
 f35 <= 1
 f36 <= 1
 f37 <= 1
 f38 <= 1
 f39 <= 1
 f40 <= 1
 f41 <= 1
 f42 <= 1
 f43 <= 1
 f44 <= 1
 f45 <= 1
 f46 <= 1
 f47 <= 1
 f48 <= 1
 f49 <= 1
 f50 <= 1
 f51 <= 1
 f52 <= 1
 f53 <= 1
 f54 <= 1
 f55 <= 1
 f56 <= 1
 f57 <= 1
 f58 <= 1
 f59 <= 1
 f60 <= 1
 f61 <= 1
 f62 <= 1
 f63 <= 1
 f64 <= 1
 f65 <= 1
 f66 <= 1
 f67 <= 1
 f68 <= 1
 f69 <= 1
 f70 <= 1
 f71 <= 1
 f72 <= 1
 f73 <= 1
 f74 <= 1
 f75 <= 1
 f76 <= 1
 f77 <= 1
 f78 <= 1
 f79 <= 1
 f80 <= 1
 f81 <= 1
 f82 <= 1
 f83 <= 1
 f84 <= 1
 f85 <= 1
 f86 <= 1
 f87 <= 1
 f88 <= 1
 f89 <= 1
 f90 <= 1
 f91 <= 1
 f92 <= 1
 f93 <= 1
 f94 <= 1
 f95 <= 1
 f96 <= 1
 f97 <= 1
 f98 <= 1
 f99 <= 1
Generals
 f0 f1 f2 f3 f4 f5 f6 f7 f8 f9 f10 f11 f12 f13 f14 f15 f16 f17 f18 f19 f20
 f21 f22 f23 f24 f25 f26 f27 f28 f29 f30 f31 f32 f33 f34 f35 f36 f37 f38
 f39 f40 f41 f42 f43 f44 f45 f46 f47 f48 f49 f50 f51 f52 f53 f54 f55 f56
 f57 f58 f59 f60 f61 f62 f63 f64 f65 f66 f67 f68 f69 f70 f71 f72 f73 f74
 f75 f76 f77 f78 f79 f80 f81 f82 f83 f84 f85 f86 f87 f88 f89 f90 f91 f92
 f93 f94 f95 f96 f97 f98 f99
End
